20	5
0	5	4	2	1	5	3
1	4	19	15	16	17
2	6	20	19	18	16	15	17
3	1	9
4	4	16	17	15	18
5	4	15	10	16	20
6	1	8
7	1	15
8	2	10	18
9	2	7	16
10	2	12	17
11	2	14	20
12	1	21
13	1	6
14	1	13
15	1	21
16	1	21
17	1	21
18	1	21
19	1	21
20	1	21
21	0
0	0	0	0	0	0	0
1	3	0	0	4	0	0
2	3	2	5	0	0	0
3	7	3	2	2	0	1
4	7	3	0	1	1	0
5	6	0	4	0	0	0
6	4	5	0	4	1	0
7	7	2	5	4	1	4
8	7	0	0	0	0	1
9	6	0	3	2	0	0
10	5	0	5	0	0	3
11	1	2	0	2	0	2
12	10	0	0	5	1	2
13	3	0	0	0	0	5
14	3	1	0	0	4	4
15	4	3	2	0	0	0
16	1	0	0	2	0	2
17	6	1	5	1	0	0
18	6	0	0	5	2	4
19	9	0	1	0	3	1
20	5	0	4	2	2	0
21	0	0	0	0	0	0
7	10	8	6	8
